local_stuff/loop_inv_stuff/loop_inv/repo/z3/90.out
STDOUT:
sat
(
  (define-fun inv ((x!0 Int) (x!1 Int) (x!2 Int) (x!3 Int) (x!4 Int) (x!5 Int)) Bool
    (let ((a!1 (not (>= (+ x!0 (* (- 1) x!1)) 0))))
      (and (or (not (<= x!2 0)) a!1) (not (>= x!2 2)))))
)


STDERR:
